<?xml version = "1.0" encoding="UTF-8" standalone="yes"?>
<CPLEXSolution version="1.2">
 <header
   problemName=""
   solutionName="p0"
   solutionIndex="-1"
   objectiveValue="34"
   solutionTypeValue="3"
   solutionTypeString="primal"
   solutionStatusValue="127"
   solutionStatusString="integer feasible solution"
   solutionMethodString="mip"
   primalFeasible="0"
   dualFeasible="0"
   writeLevel="1"/>
 <quality
   epInt="1.0000000000000001e-05"
   epRHS="9.9999999999999995e-07"
   maxIntInfeas="0"
   maxPrimalInfeas="4.4408920985006262e-16"
   maxX="53"
   maxSlack="28"/>
 <linearConstraints>
  <constraint index="0" slack="0"/>
  <constraint index="1" slack="4.4408920985006262e-16"/>
  <constraint index="2" slack="-5"/>
  <constraint index="3" slack="0"/>
  <constraint index="4" slack="-1"/>
  <constraint index="5" slack="-2"/>
  <constraint index="6" slack="0"/>
  <constraint index="7" slack="0"/>
  <constraint index="8" slack="0"/>
  <constraint index="9" slack="0"/>
  <constraint index="10" slack="0"/>
  <constraint index="11" slack="0"/>
  <constraint index="12" slack="0"/>
  <constraint index="13" slack="0"/>
  <constraint index="14" slack="0"/>
  <constraint index="15" slack="0"/>
  <constraint index="16" slack="0"/>
  <constraint index="17" slack="0"/>
  <constraint index="18" slack="0"/>
  <constraint index="19" slack="0"/>
  <constraint index="20" slack="0"/>
  <constraint index="21" slack="0"/>
  <constraint index="22" slack="4.4408920985006262e-16"/>
  <constraint index="23" slack="0"/>
  <constraint index="24" slack="0"/>
  <constraint index="25" slack="0"/>
  <constraint index="26" slack="0"/>
  <constraint index="27" slack="-3"/>
  <constraint index="28" slack="-3"/>
  <constraint index="29" slack="-3"/>
  <constraint index="30" slack="-1"/>
  <constraint index="31" slack="-3"/>
  <constraint index="32" slack="-9"/>
  <constraint index="33" slack="-3"/>
  <constraint index="34" slack="0"/>
  <constraint index="35" slack="-14"/>
  <constraint index="36" slack="-14"/>
  <constraint index="37" slack="0"/>
  <constraint index="38" slack="-18"/>
  <constraint index="39" slack="0"/>
  <constraint index="40" slack="-13"/>
  <constraint index="41" slack="0"/>
  <constraint index="42" slack="-14"/>
  <constraint index="43" slack="-14"/>
  <constraint index="44" slack="-3"/>
  <constraint index="45" slack="0"/>
  <constraint index="46" slack="-4"/>
  <constraint index="47" slack="-5"/>
  <constraint index="48" slack="-4"/>
  <constraint index="49" slack="0"/>
  <constraint index="50" slack="-2"/>
  <constraint index="51" slack="-1"/>
  <constraint index="52" slack="-22"/>
  <constraint index="53" slack="-1"/>
  <constraint index="54" slack="-18"/>
  <constraint index="55" slack="-6"/>
  <constraint index="56" slack="-10"/>
  <constraint index="57" slack="-1"/>
  <constraint index="58" slack="-6"/>
  <constraint index="59" slack="-6"/>
  <constraint index="60" slack="-14"/>
  <constraint index="61" slack="-6"/>
  <constraint index="62" slack="-18"/>
  <constraint index="63" slack="-4"/>
  <constraint index="64" slack="-14"/>
  <constraint index="65" slack="-4"/>
  <constraint index="66" slack="-20"/>
  <constraint index="67" slack="-15"/>
  <constraint index="68" slack="0"/>
  <constraint index="69" slack="4.4408920985006262e-16"/>
  <constraint index="70" slack="0"/>
  <constraint index="71" slack="-20"/>
  <constraint index="72" slack="0"/>
  <constraint index="73" slack="-16"/>
  <constraint index="74" slack="-18"/>
  <constraint index="75" slack="-10"/>
  <constraint index="76" slack="-16"/>
  <constraint index="77" slack="-15"/>
  <constraint index="78" slack="-17"/>
  <constraint index="79" slack="-20"/>
  <constraint index="80" slack="-10"/>
  <constraint index="81" slack="0"/>
  <constraint index="82" slack="-10"/>
  <constraint index="83" slack="-5"/>
  <constraint index="84" slack="-15"/>
  <constraint index="85" slack="-3"/>
  <constraint index="86" slack="-7"/>
  <constraint index="87" slack="-20"/>
  <constraint index="88" slack="-22"/>
  <constraint index="89" slack="0"/>
  <constraint index="90" slack="-24"/>
  <constraint index="91" slack="-14"/>
  <constraint index="92" slack="-12"/>
  <constraint index="93" slack="0"/>
  <constraint index="94" slack="-14"/>
  <constraint index="95" slack="-14"/>
  <constraint index="96" slack="0"/>
  <constraint index="97" slack="-6"/>
  <constraint index="98" slack="-18"/>
  <constraint index="99" slack="0"/>
  <constraint index="100" slack="-16"/>
  <constraint index="101" slack="-10"/>
  <constraint index="102" slack="-28"/>
  <constraint index="103" slack="-28"/>
  <constraint index="104" slack="0"/>
  <constraint index="105" slack="0"/>
  <constraint index="106" slack="0"/>
  <constraint index="107" slack="-20"/>
  <constraint index="108" slack="-10"/>
  <constraint index="109" slack="-18"/>
  <constraint index="110" slack="-28"/>
  <constraint index="111" slack="0"/>
  <constraint index="112" slack="-3"/>
  <constraint index="113" slack="-14"/>
  <constraint index="114" slack="-28"/>
  <constraint index="115" slack="-5"/>
  <constraint index="116" slack="0"/>
  <constraint index="117" slack="-14"/>
  <constraint index="118" slack="-28"/>
  <constraint index="119" slack="0"/>
  <constraint index="120" slack="-2"/>
  <constraint index="121" slack="-14"/>
 </linearConstraints>
 <variables>
  <variable name="x_0_0" index="0" value="0"/>
  <variable name="x_0_1" index="1" value="19"/>
  <variable name="x_0_2" index="2" value="14"/>
  <variable name="x_0_3" index="3" value="4"/>
  <variable name="x_1_0" index="4" value="1"/>
  <variable name="x_1_1" index="5" value="6"/>
  <variable name="x_1_2" index="6" value="26"/>
  <variable name="x_1_3" index="7" value="14"/>
  <variable name="x_2_0" index="8" value="3.9999999999999996"/>
  <variable name="x_2_1" index="9" value="24"/>
  <variable name="x_2_2" index="10" value="20"/>
  <variable name="x_2_3" index="11" value="0"/>
  <variable name="z_0_0_1" index="12" value="1"/>
  <variable name="z_0_0_2" index="13" value="1"/>
  <variable name="z_0_0_3" index="14" value="1"/>
  <variable name="z_0_1_2" index="15" value="-0"/>
  <variable name="z_0_1_3" index="16" value="-0"/>
  <variable name="z_0_2_3" index="17" value="-0"/>
  <variable name="z_1_0_1" index="18" value="1"/>
  <variable name="z_1_0_2" index="19" value="1"/>
  <variable name="z_1_0_3" index="20" value="1"/>
  <variable name="z_1_1_2" index="21" value="1"/>
  <variable name="z_1_1_3" index="22" value="1"/>
  <variable name="z_1_2_3" index="23" value="-0"/>
  <variable name="z_2_0_1" index="24" value="1"/>
  <variable name="z_2_0_2" index="25" value="1"/>
  <variable name="z_2_0_3" index="26" value="-0"/>
  <variable name="z_2_1_2" index="27" value="0"/>
  <variable name="z_2_1_3" index="28" value="-0"/>
  <variable name="z_2_2_3" index="29" value="-0"/>
  <variable name="cmax" index="30" value="34"/>
  <variable name="q_0_0_1" index="31" value="42"/>
  <variable name="q_0_0_2" index="32" value="47"/>
  <variable name="q_0_0_3" index="33" value="52"/>
  <variable name="q_0_1_2" index="34" value="0"/>
  <variable name="q_0_1_3" index="35" value="5"/>
  <variable name="q_0_2_3" index="36" value="0"/>
  <variable name="q_1_0_1" index="37" value="53"/>
  <variable name="q_1_0_2" index="38" value="33"/>
  <variable name="q_1_0_3" index="39" value="47"/>
  <variable name="q_1_1_2" index="40" value="38"/>
  <variable name="q_1_1_3" index="41" value="52"/>
  <variable name="q_1_2_3" index="42" value="6"/>
  <variable name="q_2_0_1" index="43" value="36"/>
  <variable name="q_2_0_2" index="44" value="46"/>
  <variable name="q_2_0_3" index="45" value="0"/>
  <variable name="q_2_1_2" index="46" value="0"/>
  <variable name="q_2_1_3" index="47" value="20"/>
  <variable name="q_2_2_3" index="48" value="16"/>
 </variables>
</CPLEXSolution>
